; benchmark generated from python API
(set-info :status unknown)
(declare-datatypes ((RealState 0)) (((RMk1 (rval1 Real)) (RMk2 (rval2 Real)))))
 (assert
 (exists ((|v11:0_st| RealState) (val!6828 Real) )(exists ((|v10:1_st| RealState) (val!6829 Real) )(exists ((|v9:2_st| RealState) (val!6830 Real) )(exists ((|v8:3_st| RealState) (val!6831 Real) )(forall ((|v7:4| Real) )(forall ((|v6:5| Real) )(forall ((|v5:6| Real) )(forall ((|v4:7| Real) )(exists ((|v3:8_st| RealState) (val!6832 Real) )(exists ((|v2:9_st| RealState) (val!6833 Real) )(exists ((|v1:10_st| RealState) (val!6834 Real) )(exists ((|v0:11_st| RealState) (val!6835 Real) )(let ((?x564 (- 8.0)))
 (let ((?x2250 (rval2 |v10:1_st|)))
 (let ((?x2946 (- 12.0)))
 (let ((?x1113 (* ?x2946 ?x2250)))
 (let ((?x104 (+ (+ (* 9.0 (rval2 |v9:2_st|)) (* (- 7.0) (rval2 |v9:2_st|))) (* (- 16.0) (rval2 |v9:2_st|)))))
 (let ((?x3071 (rval2 |v8:3_st|)))
 (let ((?x1241 (* 4.0 ?x3071)))
 (let ((?x3138 (rval2 |v1:10_st|)))
 (let ((?x1709 (- 16.0)))
 (let ((?x3214 (* ?x1709 ?x3138)))
 (let (($x554 (<= (+ (+ (+ (* (- 19.0) (rval2 |v9:2_st|)) (* 10.0 |v5:6|)) ?x3214) ?x1241) 20.0)))
 (let ((?x496 (- 19.0)))
 (let ((?x2602 (+ (+ (+ (* 14.0 ?x3138) (* 16.0 ?x2250)) (* 19.0 ?x3138)) (* (- 4.0) (rval2 |v11:0_st|)))))
 (let ((?x1642 (- 18.0)))
 (let ((?x1973 (* 18.0 |v6:5|)))
 (let ((?x1767 (+ (+ (* 12.0 (rval2 |v3:8_st|)) (* (- 1.0) (rval2 |v9:2_st|))) (* (- 17.0) ?x3138))))
 (let (($x1549 (and (and (<= (+ ?x1767 ?x1973) ?x1642) (<= ?x2602 ?x496)) (and $x554 (<= (+ ?x104 ?x1113) ?x564)))))
 (let ((?x2503 (- 3.0)))
 (let ((?x3470 (* 17.0 |v5:6|)))
 (let ((?x599 (- 6.0)))
 (let ((?x2085 (* ?x599 |v5:6|)))
 (let (($x3102 (<= (+ (+ (+ (* 11.0 (rval2 |v0:11_st|)) (* (- 11.0) |v5:6|)) ?x2085) ?x3470) ?x2503)))
 (let ((?x273 (rval2 |v2:9_st|)))
 (let ((?x231 (* 15.0 ?x273)))
 (let ((?x306 (+ (+ (+ (* 0.0 |v7:4|) (* 20.0 |v7:4|)) (* 11.0 (rval2 |v0:11_st|))) ?x231)))
 (let ((?x71 (- 9.0)))
 (let ((?x1569 (* 4.0 ?x2250)))
 (let ((?x3149 (* ?x496 |v4:7|)))
 (let ((?x2186 (+ (+ (+ (* (- 5.0) (rval2 |v11:0_st|)) (* (- 4.0) |v7:4|)) ?x3149) ?x1569)))
 (let ((?x3153 (+ (+ (+ (* 6.0 (rval2 |v0:11_st|)) (* 17.0 ?x3071)) (* 4.0 |v6:5|)) (* ?x71 (rval2 |v0:11_st|)))))
 (let (($x115 (and (and (<= ?x3153 10.0) (<= ?x2186 ?x71)) (and (<= ?x306 2.0) $x3102))))
 (let ((?x220 (rval2 |v11:0_st|)))
 (let ((?x254 (* 2.0 ?x220)))
 (let ((?x1889 (+ (+ (+ (* ?x599 |v6:5|) (* (- 14.0) ?x273)) (* ?x564 (rval2 |v0:11_st|))) ?x254)))
 (let ((?x2096 (- 10.0)))
 (let ((?x2795 (* ?x2096 |v5:6|)))
 (let ((?x922 (+ (+ (+ (* ?x1642 |v6:5|) (* ?x599 ?x273)) (* (- 1.0) (rval2 |v9:2_st|))) ?x2795)))
 (let ((?x3003 (+ (+ (+ (* (- 11.0) |v6:5|) (* 7.0 |v5:6|)) ?x2795) (* (- 20.0) (rval2 |v3:8_st|)))))
 (let ((?x1633 (- 7.0)))
 (let ((?x3289 (* ?x1633 |v7:4|)))
 (let ((?x1515 (+ (+ (+ (* ?x599 |v6:5|) (* 0.0 ?x3138)) (* 13.0 (rval2 |v3:8_st|))) ?x3289)))
 (let (($x2617 (and (and (<= ?x1515 15.0) (<= ?x3003 6.0)) (and (<= ?x922 0.0) (<= ?x1889 2.0)))))
 (let (($x353 (<= (+ (+ (+ ?x3149 (* ?x2096 |v4:7|)) (* 7.0 ?x273)) (* 17.0 |v6:5|)) ?x496)))
 (let ((?x2387 (- 1.0)))
 (let ((?x1819 (* ?x2387 |v6:5|)))
 (let ((?x2581 (+ (+ (+ (* (- 2.0) |v5:6|) (* (- 4.0) |v6:5|)) ?x1819) (* 20.0 ?x2250))))
 (let ((?x2081 (+ (+ (+ (* 10.0 ?x2250) (* 13.0 (rval2 |v9:2_st|))) (* ?x496 ?x220)) (* (- 2.0) |v6:5|))))
 (let ((?x1415 (- 15.0)))
 (let ((?x1198 (* 10.0 ?x3138)))
 (let (($x637 (<= (+ (+ (+ ?x1819 (* (- 14.0) ?x3138)) (* 4.0 (rval2 |v3:8_st|))) ?x1198) ?x1415)))
 (let (($x2454 (and (and (and $x637 (<= ?x2081 7.0)) (and (<= ?x2581 4.0) $x353)) $x2617)))
 (let ((?x2109 (* ?x1642 |v5:6|)))
 (let (($x2583 (<= (+ (+ (+ (* 3.0 ?x3138) (* 17.0 ?x220)) (* 2.0 |v7:4|)) ?x2109) 9.0)))
 (let ((?x1962 (+ (+ (+ ?x3149 (* ?x2096 ?x220)) (* (- 17.0) (rval2 |v0:11_st|))) (* (- 17.0) ?x273))))
 (let ((?x961 (- 2.0)))
 (let ((?x101 (* 7.0 |v4:7|)))
 (let ((?x2397 (rval2 |v3:8_st|)))
 (let ((?x3070 (* 17.0 ?x2397)))
 (let ((?x1323 (+ (+ (* (- 4.0) (rval2 |v0:11_st|)) (* (- 11.0) (rval2 |v0:11_st|))) ?x3070)))
 (let ((?x226 (* 10.0 |v6:5|)))
 (let (($x85 (<= (+ (+ (+ (* 13.0 |v7:4|) (* (- 4.0) ?x273)) ?x2085) ?x226) 17.0)))
 (let ((?x1443 (* 12.0 |v7:4|)))
 (let ((?x891 (+ (+ (+ (* 12.0 ?x2397) (* 9.0 (rval2 |v9:2_st|))) (* ?x1709 ?x2250)) ?x1443)))
 (let ((?x2897 (+ (+ (+ (* ?x2096 ?x3071) (* 16.0 |v6:5|)) (* ?x71 ?x3138)) (* ?x1415 ?x3138))))
 (let (($x943 (<= (+ (+ (+ (* (- 11.0) |v4:7|) ?x2109) (* ?x1709 |v5:6|)) (* ?x1709 |v4:7|)) ?x1633)))
 (let ((?x2120 (+ (+ (+ (* 3.0 |v4:7|) (* (- 13.0) ?x220)) ?x3070) (* (- 4.0) (rval2 |v9:2_st|)))))
 (let (($x3094 (or (or (<= ?x2120 ?x2946) $x943) (and (<= ?x2897 20.0) (<= ?x891 19.0)))))
 (let (($x935 (or $x3094 (and (and $x85 (<= (+ ?x1323 ?x101) ?x961)) (or (<= ?x1962 11.0) $x2583)))))
 (let ((?x1824 (+ (+ (+ (* (- 13.0) |v4:7|) |v6:5|) (* (- 13.0) (rval2 |v0:11_st|))) (* ?x599 (rval2 |v9:2_st|)))))
 (let (($x2634 (<= (+ (+ (+ (* 16.0 ?x2250) (* 5.0 |v7:4|)) (* 13.0 |v7:4|)) ?x3149) 18.0)))
 (let (($x2608 (<= (+ (+ (+ (* 7.0 ?x3138) ?x1241) (* (- 17.0) ?x2250)) (* ?x2387 ?x2250)) 0.0)))
 (let ((?x2737 (* 3.0 ?x220)))
 (let (($x1648 (<= (+ (+ (+ (* 3.0 ?x2397) (* 7.0 (rval2 |v9:2_st|))) ?x1819) ?x2737) 14.0)))
 (let ((?x1774 (- 11.0)))
 (let ((?x1421 (* ?x1774 |v6:5|)))
 (let ((?x644 (+ (+ (+ (* ?x71 ?x220) (* ?x2503 (rval2 |v9:2_st|))) (* 4.0 |v7:4|)) ?x1421)))
 (let ((?x1342 (* ?x71 ?x2397)))
 (let ((?x232 (+ (+ (+ (* 5.0 ?x2250) (* 13.0 ?x3071)) (* 10.0 (rval2 |v0:11_st|))) ?x1342)))
 (let ((?x779 (+ (+ (+ (* 9.0 (rval2 |v9:2_st|)) ?x2085) (* 9.0 ?x2397)) (* ?x564 |v6:5|))))
 (let ((?x3147 (rval2 |v9:2_st|)))
 (let ((?x1374 (* 13.0 ?x3147)))
 (let (($x2205 (and (<= (+ (+ (+ (* 19.0 |v4:7|) ?x1198) (* ?x1633 ?x3138)) ?x1374) 17.0) (<= ?x779 14.0))))
 (let (($x3023 (and (and $x2205 (and (<= ?x232 15.0) (<= ?x644 ?x2387))) (and (and $x1648 $x2608) (and $x2634 (<= ?x1824 20.0))))))
 (let ((?x2736 (+ (+ (+ (* 10.0 ?x3071) (* 5.0 ?x3071)) (* 18.0 ?x2250)) (* 8.0 ?x2250))))
 (let ((?x117 (+ (+ (+ (* 19.0 ?x3138) (* 5.0 ?x273)) (* (- 13.0) ?x3138)) (* (- 17.0) ?x3071))))
 (let ((?x2572 (- 4.0)))
 (let ((?x1477 (- 5.0)))
 (let ((?x2566 (* ?x1477 |v7:4|)))
 (let (($x868 (<= (+ (+ (+ (* 10.0 |v5:6|) (* 6.0 |v5:6|)) (* ?x961 |v4:7|)) ?x1342) ?x1633)))
 (let (($x1038 (and $x868 (<= (+ (+ (+ ?x101 (* 16.0 ?x2250)) (* 6.0 |v5:6|)) ?x2566) ?x2572))))
 (let ((?x1319 (- 13.0)))
 (let ((?x758 (* ?x71 ?x3138)))
 (let (($x560 (<= (+ (+ (+ (* 13.0 ?x2397) (* ?x1633 ?x220)) (* ?x496 |v7:4|)) ?x758) ?x1319)))
 (let (($x2981 (<= (+ (+ (+ (* 19.0 ?x273) (* 10.0 ?x3147)) ?x3470) (* ?x1477 ?x2250)) ?x2572)))
 (let ((?x2772 (+ (+ (+ (* 10.0 |v4:7|) (* 12.0 |v6:5|)) (* ?x71 |v7:4|)) (* ?x1774 ?x3138))))
 (let (($x320 (<= (+ (+ (+ ?x1198 (* ?x1319 ?x2397)) (* 12.0 ?x273)) (* 19.0 ?x3138)) 18.0)))
 (let (($x67 (and (and (and $x320 (<= ?x2772 5.0)) (and $x2981 $x560)) (and $x1038 (and (<= ?x117 18.0) (<= ?x2736 3.0))))))
 (let ((?x2063 (* 3.0 |v4:7|)))
 (let (($x879 (<= (+ (+ (+ (* 9.0 |v7:4|) (* ?x599 ?x220)) (* ?x599 ?x3138)) ?x2063) 20.0)))
 (let ((?x635 (+ (+ (+ (* 12.0 |v5:6|) (* 16.0 |v6:5|)) ?x1374) (* ?x1633 (rval2 |v0:11_st|)))))
 (let (($x3195 (<= (+ (+ (+ ?x3070 (* ?x71 ?x220)) (* ?x2503 ?x220)) (* 15.0 ?x220)) 5.0)))
 (let ((?x1588 (* ?x2572 ?x2250)))
 (let (($x3476 (<= (+ (+ (+ (* ?x71 |v4:7|) (* ?x1319 |v6:5|)) (* ?x2387 ?x2250)) ?x1588) 1.0)))
 (let ((?x2119 (+ (+ (+ (* (- 17.0) ?x2250) (* 14.0 ?x2397)) (* (- 17.0) |v4:7|)) ?x3071)))
 (let ((?x2748 (* 7.0 |v6:5|)))
 (let ((?x1195 (+ (+ (+ (* 17.0 ?x3138) (* ?x961 (rval2 |v0:11_st|))) (* ?x1709 ?x273)) ?x2748)))
 (let ((?x1826 (+ (+ (+ (* ?x961 |v4:7|) (* 0.0 ?x273)) (* ?x2096 ?x3071)) (* ?x1774 ?x3071))))
 (let (($x2084 (<= (+ (+ (+ (* ?x1633 ?x3071) (* ?x1415 ?x3071)) ?x1421) (* 13.0 ?x2250)) ?x2503)))
 (let (($x725 (and (or $x2084 (<= ?x1826 2.0)) (and (<= ?x1195 5.0) (<= ?x2119 15.0)))))
 (let (($x3068 (and (and $x725 (and (and $x3476 $x3195) (and (<= ?x635 4.0) $x879))) $x67)))
 (let (($x1388 (<= (+ (+ (+ (* ?x564 ?x3071) ?x2795) (* 3.0 ?x3071)) (* ?x1633 ?x3071)) ?x2387)))
 (let (($x2032 (<= (+ (+ (+ (* 14.0 |v7:4|) ?x1588) (* ?x2503 ?x273)) (* ?x496 ?x3138)) 15.0)))
 (let ((?x3049 (+ (+ (+ (* 7.0 (rval2 |v0:11_st|)) (* ?x2387 ?x2250)) (* ?x1415 |v6:5|)) (* ?x71 |v6:5|))))
 (let (($x204 (and (<= ?x3049 ?x1477) (<= (+ (+ (+ (* 14.0 ?x2397) (* ?x2572 |v6:5|)) ?x2748) ?x2737) ?x1415))))
 (let ((?x721 (rval2 |v0:11_st|)))
 (let ((?x2806 (* 15.0 ?x721)))
 (let (($x2949 (<= (+ (+ (+ (* ?x2503 ?x3147) (* 9.0 |v5:6|)) (* ?x564 ?x2397)) ?x2806) 20.0)))
 (let ((?x271 (* 7.0 ?x3138)))
 (let (($x883 (<= (+ (+ (+ (* ?x1633 |v4:7|) (* 10.0 ?x721)) (* 3.0 |v6:5|)) ?x271) ?x1415)))
 (let ((?x3046 (* 6.0 ?x2250)))
 (let (($x155 (<= (+ (+ (+ (* (- 20.0) ?x721) (* ?x1642 ?x3147)) (* ?x564 ?x273)) ?x3046) 16.0)))
 (let ((?x2864 (* 16.0 |v7:4|)))
 (let (($x594 (<= (+ (+ (+ (* 2.0 ?x2397) (* 0.0 ?x2250)) (* ?x1633 ?x2397)) ?x2864) 8.0)))
 (let (($x1946 (<= (+ (+ (+ (* 16.0 |v5:6|) ?x2063) (* 14.0 |v6:5|)) (* ?x496 ?x3147)) ?x1415)))
 (let (($x1022 (<= (+ (+ (+ (* ?x2946 ?x273) ?x3138) (* 15.0 |v4:7|)) (* 0.0 |v5:6|)) ?x1477)))
 (let ((?x2112 (+ (+ (+ (* 15.0 ?x3138) (* 17.0 ?x273)) (* 17.0 ?x3138)) (* ?x961 ?x2397))))
 (let (($x1997 (and (<= ?x2112 14.0) (<= (+ (+ (+ ?x3214 ?x3071) (* ?x2946 |v5:6|)) (* ?x2096 |v4:7|)) 6.0))))
 (let (($x162 (<= (+ (+ (+ ?x3147 (* 4.0 |v4:7|)) (* ?x599 ?x721)) (* ?x599 ?x721)) 10.0)))
 (let ((?x2348 (- 20.0)))
 (let (($x1886 (<= (+ (+ (+ ?x271 ?x1113) (* 18.0 ?x3147)) (* (- 14.0) |v5:6|)) ?x2348)))
 (let (($x1190 (<= (+ (+ (+ (* ?x961 ?x3138) (* 9.0 |v4:7|)) ?x1374) (* ?x2572 ?x273)) 14.0)))
 (let (($x3211 (<= (+ (+ (+ (* ?x496 ?x2250) (* 5.0 ?x273)) ?x3046) (* ?x71 |v7:4|)) ?x2387)))
 (let (($x268 (and (and (and $x3211 $x1190) (and $x1886 $x162)) (and $x1997 (and $x1022 $x1946)))))
 (let (($x2539 (and $x268 (and (or (and $x594 $x155) (or $x883 $x2949)) (and $x204 (or $x2032 $x1388))))))
 (let (($x1629 (and (and $x2539 $x3068) (and (and $x3023 $x935) (and $x2454 (and $x115 $x1549))))))
 (let (($x1161 (not (= |v0:11_st| (RMk1 val!6835)))))
 (let (($x1272 (not (= |v1:10_st| (RMk1 val!6834)))))
 (let (($x1346 (not (= |v2:9_st| (RMk1 val!6833)))))
 (let (($x2005 (not (= |v3:8_st| (RMk1 val!6832)))))
 (let (($x1367 (not (= |v8:3_st| (RMk1 val!6831)))))
 (let (($x3058 (not (= |v9:2_st| (RMk1 val!6830)))))
 (let (($x1294 (not (= |v10:1_st| (RMk1 val!6829)))))
 (let (($x2915 (not (= |v11:0_st| (RMk1 val!6828)))))
 (and $x2915 $x1294 $x3058 $x1367 $x2005 $x1346 $x1272 $x1161 $x1629)))))))))))))))))))))))))))))))))))))))))))))))))))))))))))))))))))))))))))))))))))))))))))))))))))))))))))))))))))))))))))))))))))))))))))))))))
 )
 )
 )
 )
 )
 )
 )
 )
 )
 )
 )
 )
(check-sat)
